
(set-logic ALL) 

(declare-datatype MyList ((Nil) (Cons (head Real) (tail MyList)) )) 
(declare-fun l0 () MyList) 
(declare-fun l1 () MyList) 
(declare-fun l2 () MyList) 
(declare-fun l3 () MyList) 
(declare-fun i0 () Real) 
(declare-fun i1 () Real) 
(assert (or (= l0 Nil) (= l2 l3) (is-Cons l1) (= l3 Nil)) )
(assert (is-Cons l0) )
(assert (is-Nil l1) )
(assert (= l1 Nil) )
(assert (and (is-Cons Nil) (= l1 Nil)) )
(assert (= l0 Nil) )
(assert (and (= l2 l2) (= l2 l1)) )
(assert (not (= l2 l1)) )
(check-sat)
